db/data/2560163802528815421269122938128693302.z3.out
sat
-------------------
29.681793154
